####### BEGIN STRUCTURE #######
#structure_number = 1754
#Z = 4
#number_of_atoms_in_molecule = 30 
#unit_cell_volume = 2019.645264 cubic Angstrom
#attempted_spacegroup = 9
#attempted_wyckoff_position = 4a
#site_symmetry_group = 1
#SPGLIB_detected_spacegroup = 9
#"All distances in Angstroms and using Cartesian coordinate system"
lattice_vector     7.564384     0.000000     0.000000 
lattice_vector     0.000000    20.951742     0.000000 
lattice_vector     1.726262     0.000000    12.743284 
atom     5.556759     4.633932     2.418697  C  
atom     6.279006     3.505401     1.978206  C  
atom     6.006849     5.289856     3.168377  H  
atom     4.286008     4.934132     1.924614  C  
atom     5.679157     2.631987     0.979700  C  
atom     7.562765     3.194374     2.472530  C  
atom     3.686939     4.061861     0.927211  C  
atom     3.545038     6.076257     2.367270  C  
atom     4.395398     2.943015     0.485374  C  
atom     6.401403     1.503456     0.539209  C  
atom     8.271224     2.075529     2.030694  C  
atom     8.013369     3.849929     3.222230  H  
atom     2.382593     4.383628     0.432692  C  
atom     2.296702     6.346272     1.865657  C  
atom     3.995718     6.730897     3.116432  H  
atom     3.944793     2.287459    -0.264326  H  
atom     5.951314     0.847531    -0.210471  H  
atom     7.672153     1.203256     1.033291  C  
atom     9.575572     1.753761     2.525211  C  
atom     1.932745     3.727552    -0.315711  H  
atom     1.708018     5.489092     0.886326  C  
atom     1.744403     7.220448     2.213947  H  
atom     8.413126     0.061129     0.590635  C  
atom    10.250145     0.648296     2.071578  C  
atom    10.025419     2.409837     3.273614  H  
atom     0.713800     5.719807     0.500542  H  
atom     7.962444    -0.593511    -0.158527  H  
atom     9.661461    -0.208885     1.092248  C  
atom    11.244361     0.417581     2.457362  H  
atom    10.213756    -1.083061     0.743958  H  
atom     6.419890    16.317808     8.790339  C  
atom     7.142138    17.446341     8.349847  C  
atom     6.869979    15.661884     9.540018  H  
atom     5.149140    16.017611     8.296257  C  
atom     6.542287    18.319754     7.351343  C  
atom     8.425897    17.757368     8.844172  C  
atom     4.550070    16.889881     7.298852  C  
atom     4.408170    14.875484     8.738913  C  
atom     5.258530    18.008726     6.857017  C  
atom     7.264534    19.448286     6.910851  C  
atom     9.134357    18.876211     8.402336  C  
atom     8.876502    17.101810     9.593873  H  
atom     3.245724    16.568113     6.804334  C  
atom     3.159833    14.605469     8.237299  C  
atom     4.858848    14.220843     9.488073  H  
atom     4.807924    18.664280     6.107316  H  
atom     6.814445    20.104212     6.161170  H  
atom     8.535283    19.748484     7.404932  C  
atom    10.438701    19.197981     8.896853  C  
atom     2.795876    17.224192     6.055930  H  
atom     2.571149    15.462648     7.257968  C  
atom     2.607534    13.731295     8.585589  H  
atom     9.276256    20.890612     6.962277  C  
atom    11.113276    20.303444     8.443220  C  
atom    10.888548    18.541903     9.645256  H  
atom     1.576931    15.231934     6.872184  H  
atom     8.825573    21.545250     6.213115  H  
atom    10.524592    21.160625     7.463891  C  
atom    12.107496    20.534159     8.829003  H  
atom    11.076887    22.034800     7.115601  H  
atom     1.774567    15.109802     2.418697  C  
atom     2.496816    13.981270     1.978206  C  
atom     2.224655    15.765725     3.168377  H  
atom     0.503816    15.410001     1.924614  C  
atom     1.896964    13.107857     0.979700  C  
atom     3.780574    13.670246     2.472530  C  
atom    -0.095253    14.537732     0.927211  C  
atom    -0.237152    16.552130     2.367270  C  
atom     0.613207    13.418887     0.485374  C  
atom     2.619211    11.979327     0.539209  C  
atom     4.489033    12.551398     2.030694  C  
atom     4.231179    14.325798     3.222230  H  
atom    -1.399599    14.859497     0.432692  C  
atom    -1.485490    16.822144     1.865657  C  
atom     0.213526    17.206768     3.116432  H  
atom     0.162600    12.763330    -0.264326  H  
atom     2.169122    11.323402    -0.210471  H  
atom     3.889962    11.679127     1.033291  C  
atom     5.793379    12.229630     2.525211  C  
atom    -1.849447    14.203422    -0.315711  H  
atom    -2.074174    15.964961     0.886326  C  
atom    -2.037789    17.696320     2.213947  H  
atom     4.630932    10.537000     0.590635  C  
atom     6.467953    11.124166     2.071578  C  
atom     6.243227    12.885708     3.273614  H  
atom    -3.068392    16.195679     0.500542  H  
atom     4.180252     9.882360    -0.158527  H  
atom     5.879268    10.266987     1.092248  C  
atom     7.462169    10.893451     2.457362  H  
atom     6.431565     9.392809     0.743958  H  
atom     2.637698     5.841938     8.790339  C  
atom     3.359946     6.970469     8.349847  C  
atom     3.087788     5.186014     9.540018  H  
atom     1.366949     5.541739     8.296257  C  
atom     2.760095     7.843883     7.351343  C  
atom     4.643703     7.281496     8.844172  C  
atom     0.767878     6.414011     7.298852  C  
atom     0.625978     4.399613     8.738913  C  
atom     1.476337     7.532855     6.857017  C  
atom     3.482342     8.972415     6.910851  C  
atom     5.352165     8.400342     8.402336  C  
atom     5.094309     6.625942     9.593873  H  
atom    -0.536468     6.092242     6.804334  C  
atom    -0.622359     4.129599     8.237299  C  
atom     1.076656     3.744972     9.488073  H  
atom     1.025732     8.188411     6.107316  H  
atom     3.032252     9.628338     6.161170  H  
atom     4.753092     9.272614     7.404932  C  
atom     6.656510     8.722111     8.896853  C  
atom    -0.986316     6.748319     6.055930  H  
atom    -1.211043     4.986779     7.257968  C  
atom    -1.174658     3.255423     8.585589  H  
atom     5.494062    10.414740     6.962277  C  
atom     7.331084     9.827575     8.443220  C  
atom     7.106358     8.066032     9.645256  H  
atom    -2.205261     4.756063     6.872184  H  
atom     5.043383    11.069380     6.213115  H  
atom     6.742399    10.684755     7.463891  C  
atom     8.325302    10.058288     8.829003  H  
atom     7.294696    11.558931     7.115601  H  
#######  END  STRUCTURE #######
