lattice_vector -0.0 -0.0 6.92
lattice_vector 7.44 -0.0 4.555686092828154e-16
lattice_vector 1.535757130441188e-15 9.55 5.847688465928612e-16
atom 6.71386 2.33688 6.79752 H
atom 4.44614 7.21312 3.33752 H
atom 2.99386 2.43811 0.12248 H
atom 0.72614 7.11189 3.58248 H
atom 0.72614 7.21312 0.12248 H
atom 2.99386 2.33688 3.58248 H
atom 4.44614 7.11189 6.79752 H
atom 6.71386 2.43811 3.33752 H
atom 5.64770 0.75827 1.53486 H
atom 5.51230 8.79173 4.99486 H
atom 1.92770 4.01673 5.38514 H
atom 1.79230 5.53327 1.92514 H
atom 1.79230 8.79173 5.38514 H
atom 1.92770 0.75827 1.92514 H
atom 5.51230 5.53327 1.53486 H
atom 5.64770 4.01673 4.99486 H
atom 1.02002 1.55761 5.32010 H
atom 2.69998 7.99239 1.86010 H
atom 4.74002 3.21740 1.59990 H
atom 6.41998 6.33260 5.05990 H
atom 6.41998 7.99239 1.59990 H
atom 4.74002 1.55761 5.05990 H
atom 2.69998 6.33260 5.32010 H
atom 1.02002 3.21740 1.86010 H
atom 7.01666 1.32458 6.88263 C
atom 4.14334 8.22542 3.42263 C
atom 3.29666 3.45041 0.03737 C
atom 0.42334 6.09959 3.49737 C
atom 0.42334 8.22542 0.03737 C
atom 3.29666 1.32458 3.49737 C
atom 4.14334 6.09959 6.88263 C
atom 7.01666 3.45041 3.42263 C
atom 6.44676 0.43930 0.87469 C
atom 4.71324 9.11070 4.33469 C
atom 2.72676 4.33570 6.04531 C
atom 0.99324 5.21430 2.58531 C
atom 0.99324 9.11070 6.04531 C
atom 2.72676 0.43930 2.58531 C
atom 4.71324 5.21430 0.87469 C
atom 6.44676 4.33570 4.33469 C
atom 0.57586 0.88337 6.02386 C
atom 3.14414 8.66663 2.56386 C
atom 4.29586 3.89162 0.89614 C
atom 6.86414 5.65837 4.35614 C
atom 6.86414 8.66663 0.89614 C
atom 4.29586 0.88337 4.35614 C
atom 3.14414 5.65837 6.02386 C
atom 0.57586 3.89162 2.56386 C
