#structure_number = 12
#Z = 4
#number_of_atoms_in_molecule = 12 
#unit_cell_volume = 1920.255737 cubic Angstrom
#attempted_spacegroup = 13
#attempted_wyckoff_position = 4g
#site_symmetry_group = 1
#SPGLIB_detected_spacegroup = 13
#"All distances in Angstroms and using Cartesian coordinate system"
lattice_vector    13.922985     0.000000     0.000000 
lattice_vector     0.000000     9.514684     0.000000 
lattice_vector     0.565349     0.000000    14.495473 
atom     5.925580     3.273698     5.862992  C  
atom     4.553768     3.101856     5.663790  C  
atom     6.469580     3.127285     7.141380  C  
atom     3.725955     2.783763     6.743140  C  
atom     5.641647     2.809161     8.220615  C  
atom     4.269826     2.637347     8.021254  C  
atom     6.572291     3.522001     5.020949  H  
atom     4.128683     3.216118     4.666198  H  
atom     7.540452     3.261401     7.296789  H  
atom     2.655057     2.649796     6.587857  H  
atom     6.066626     2.694973     9.218237  H  
atom     3.622615     2.389090     8.862959  H  
atom     8.562754     6.240985     8.632480  C  
atom     9.934566     6.412827     8.831681  C  
atom     8.018755     6.387398     7.354092  C  
atom    10.762380     6.730921     7.752331  C  
atom     8.846685     6.705522     6.274858  C  
atom    10.218509     6.877336     6.474217  C  
atom     7.916042     5.992682     9.474523  H  
atom    10.359652     6.298564     9.829273  H  
atom     6.947882     6.253282     7.198682  H  
atom    11.833278     6.864887     7.907615  H  
atom     8.421708     6.819710     5.277234  H  
atom    10.865719     7.125594     5.632513  H  
atom     8.280078     3.273698     1.384743  C  
atom     9.651892     3.101856     1.583945  C  
atom     7.736080     3.127285     0.106355  C  
atom    10.479705     2.783763     0.504595  C  
atom     8.564013     2.809161    -0.972879  C  
atom     9.935834     2.637347    -0.773519  C  
atom     7.633368     3.522001     2.226786  H  
atom    10.076977     3.216118     2.581537  H  
atom     6.665207     3.261401    -0.049054  H  
atom    11.550605     2.649796     0.659878  H  
atom     8.139034     2.694973    -1.970502  H  
atom    10.583044     2.389090    -1.615224  H  
atom     6.208255     6.240985    13.110726  C  
atom     4.836442     6.412827    12.911525  C  
atom     6.752254     6.387398    14.389114  C  
atom     4.008629     6.730921    13.990875  C  
atom     5.924321     6.705522    15.468348  C  
atom     4.552500     6.877336    15.268990  C  
atom     6.854966     5.992682    12.268685  H  
atom     4.411357     6.298564    11.913934  H  
atom     7.823127     6.253282    14.544524  H  
atom     2.937731     6.864887    13.835593  H  
atom     6.349299     6.819710    16.465971  H  
atom     3.905290     7.125594    16.110693  H  
