#=======================================================
# FHI-aims file: exp_geometry.in
# Created using the Atomic Simulation Environment (ASE)
# Sun Mar 21 23:44:35 2021
#=======================================================
lattice_vector 5.9405932670186958 -0.0246202626801050 -0.0328556974665870 
lattice_vector 0.6292747401319130 7.3518585619528416 -0.1871044016223550 
lattice_vector 3.8037406998323720 2.2541396901358022 11.8534070981934416 
atom -0.5684426244967200 3.5823196090392790 -1.7462347670047991 C
atom -0.3199200287422340 3.4535788399203651 -0.3605705596891700 C
atom -1.5207611423183980 3.2427435750420019 -2.1473959956649571 H
atom 0.2434406804852410 3.2187960538973388 2.4204365806719519 C
atom 0.4789896342431020 3.0828386192382631 3.8286444068122720 C
atom -0.4723340930503570 2.5387692792773682 4.6540663301108136 C
atom -1.7237218247992601 2.1036005309235040 4.1251885042380110 C
atom -1.9923152787039691 2.2242325040085520 2.7863437271744842 C
atom -1.0239517946417149 2.7769401575713299 1.8871288358467360 C
atom -1.2786915699477031 2.9021740155813598 0.5180734735480230 C
atom 1.4300086157333241 3.4272888674138171 4.2299196867220088 H
atom -0.2806661855395530 2.4398133225035501 5.7211511493276266 H
atom -2.4670514898752538 1.6733926054085850 4.7921585121282666 H
atom -2.9494165795141751 1.9034207704941739 2.3840971845464121 H
atom -2.2320710964025050 2.5684185302626652 0.1152818381987460 H
atom 0.3858439209914280 4.1330707692073521 -2.6075301057759210 C
atom 0.1502483690752110 4.2690170122083089 -4.0157712902914264 C
atom 1.1016097738559600 4.8130974799023081 -4.8411529429952749 C
atom 2.3529317551872051 5.2482841594274996 -4.3124452471543693 C
atom 2.6216303154691669 5.1276307712164968 -2.9733288833955922 C
atom 1.6531755767823750 4.5749013166150423 -2.0742171555217159 C
atom 1.9079626184116230 4.4497051584255054 -0.7052438073205490 C
atom -0.8007349155573150 3.9245735555805270 -4.4170289906153073 H
atom 0.9099215779653460 4.9120534387613413 -5.9082563081303858 H
atom 3.0962879035103810 5.6784659424255564 -4.9792484428719259 H
atom 3.5786509684112562 5.4484408402824416 -2.5712231218801360 H
atom 2.8613265889274229 4.7834465277842817 -0.3023875558773220 H
atom 1.1976923524993830 3.7695364724829741 1.5591044117931410 C
atom 0.9491684850150700 3.8982529811691542 0.1734892747637640 C
atom 2.1500224503681751 4.1091209102167001 1.9602842440386661 H
atom 1.1418427739477299 -1.0160574220570151 4.4627183434544229 C
atom 0.8086202444457090 -0.3918518173179550 3.2893271089277021 C
atom 0.4491094002651120 -1.0124652745487539 5.3012949614849569 H
atom -0.1521229787543300 0.1040586824434190 3.1833395261800121 H
atom 4.5331797546297397 -0.2938061445370630 -1.0138202568519641 C
atom 5.4964682142554437 -0.7855014969813990 -0.9046314551582050 H
atom 3.9208766796537020 -0.9816824094579280 1.2767236667189541 C
atom 3.0056627917715799 -1.0139007666650930 2.3338060866355499 C
atom 3.3091130309990069 -1.6612667224687121 3.5760287002726421 C
atom 2.4021539040050910 -1.6683858842568180 4.6034535467183781 C
atom 1.7204461850678960 -0.3712888634632710 2.1840789417897222 C
atom 3.6149799601928061 -0.3320541280816550 0.0595568465855890 C
atom 4.8885706848246446 -1.4656794722313780 1.3908825279342760 H
atom 4.2748695588764907 -2.1477519443879292 3.6936935100128490 H
atom 2.6412119589580909 -2.1763643713221459 5.5352165444882973 H
atom 2.0197598026716950 0.9570818402766550 -1.3096607367928861 C
atom 2.9349347094230689 0.9892509017887960 -2.3665537998492110 C
atom 2.6314873975005528 1.6366574722213290 -3.6088948761298290 C
atom 3.5384888370655339 1.6437476774963600 -4.6363066903431500 C
atom 4.2201460887710374 0.3467168918564880 -2.2170098195914889 C
atom 2.3256393619419629 0.3074229140746330 -0.0923951369592230 C
atom 1.0520478527206529 1.4410507458193671 -1.4237033532299139 H
atom 1.6657587505886531 2.1231314821368130 -3.7265427508612459 H
atom 3.2993951553435310 2.1517307499007190 -5.5680631562334790 H
atom 1.4074328419811570 0.2691551968454120 0.9810065688022500 C
atom 0.4441516385661580 0.7608925523231680 0.8717614442155780 H
atom 4.7987362033951548 0.9914423734261060 -4.4956009633403520 C
atom 5.1320205749186822 0.3672121335213310 -3.3221351717490060 C
atom 5.4914936539968426 0.9878372803578950 -5.3341408442106379 H
atom 6.0927245144814979 -0.1286676429254420 -3.2161827049773519 H
