####### BEGIN STRUCTURE #######
#structure_number = 4
#Z = 2
#number_of_atoms_in_molecule = 30 
#unit_cell_volume = 673.474915 cubic Angstrom
#attempted_spacegroup = 2
#attempted_wyckoff_position = 2i
#site_symmetry_group = 1
#SPGLIB_detected_spacegroup = 2
#"All distances in Angstroms and using Cartesian coordinate system"
lattice_vector     6.441432     0.000000     0.000000 
lattice_vector     0.028912     9.134216     0.000000 
lattice_vector    -0.881008    -0.878993    11.446367 
atom     0.405358     7.015586    12.321428  C  
atom     0.618909     6.814942    10.941792  C  
atom     0.155581     6.155526    12.948122  H  
atom     0.503614     8.279639    12.905859  C  
atom     0.951540     7.960745    10.107419  C  
atom     0.520945     5.541692    10.343156  C  
atom     0.835985     9.424037    12.072526  C  
atom     0.286742     8.492835    14.304768  C  
atom     1.049506     9.233994    10.706056  C  
atom     1.165090     7.760101     8.727782  C  
atom     0.734466     5.351650     8.976686  C  
atom     0.271193     4.681249    10.969343  H  
atom     0.930967    10.713104    12.687902  C  
atom     0.388110     9.746952    14.852291  C  
atom     0.037142     7.632756    14.929966  H  
atom     1.299257    10.094437    10.079868  H  
atom     1.414868     8.620162     8.101089  H  
atom     1.066835     6.496048     8.143353  C  
atom     0.639485     4.062584     8.361308  C  
atom     1.179669    11.572425    12.061307  H  
atom     0.714032    10.871169    14.033576  C  
atom     0.219054     9.893005    15.920286  H  
atom     1.283707     6.282855     6.744443  C  
atom     0.856417     3.904519     7.015634  C  
atom     0.390783     3.203263     8.987906  H  
atom     0.788700    11.860680    14.487255  H  
atom     1.533306     7.142933     6.119245  H  
atom     1.182340     5.028738     6.196916  C  
atom     0.781750     2.915009     6.561955  H  
atom     1.351394     4.882683     5.128922  H  
atom     5.183979     1.239638    -0.875061  C  
atom     4.970428     1.440281     0.504574  C  
atom     5.433756     2.099698    -1.501755  H  
atom     5.085722    -0.024416    -1.459492  C  
atom     4.637796     0.294479     1.338948  C  
atom     5.068393     2.713532     1.103212  C  
atom     4.753351    -1.168813    -0.626159  C  
atom     5.302596    -0.237611    -2.858400  C  
atom     4.539831    -0.978771     0.740312  C  
atom     4.424247     0.495122     2.718585  C  
atom     4.854871     2.903574     2.469681  C  
atom     5.318144     3.573975     0.477024  H  
atom     4.658370    -2.457880    -1.241535  C  
atom     5.201228    -1.491728    -3.405925  C  
atom     5.552195     0.622468    -3.483598  H  
atom     4.290080    -1.839214     1.366499  H  
atom     4.174469    -0.364938     3.345278  H  
atom     4.522501     1.759176     3.303014  C  
atom     4.949852     4.192639     3.085059  C  
atom     4.409667    -3.317201    -0.614940  H  
atom     4.875304    -2.615946    -2.587209  C  
atom     5.370283    -1.637782    -4.473918  H  
atom     4.305629     1.972370     4.701923  C  
atom     4.732919     4.350706     4.430733  C  
atom     5.198554     5.051960     2.458462  H  
atom     4.800636    -3.605455    -3.040888  H  
atom     4.056030     1.112291     5.327122  H  
atom     4.406997     3.226486     5.249451  C  
atom     4.807587     5.340216     4.884411  H  
atom     4.237942     3.372540     6.317446  H  
#######  END  STRUCTURE #######
